Version identifier: 22.1.0.0 | 2022-03-09 | 1a383f8ce
CPXPARAM_Threads                                 1
CPXPARAM_MIP_Strategy_VariableSelect             3
CPXPARAM_TimeLimit                               599.99998598800005
1 of 1 MIP starts provided solutions.
MIP start 'm1' defined initial solution with objective 1.0000.
Tried aggregator 1 time.
MIP Presolve eliminated 14 rows and 0 columns.
MIP Presolve modified 273 coefficients.
Reduced MIP has 1213 rows, 5200 columns, and 76896 nonzeros.
Reduced MIP has 5200 binaries, 0 generals, 0 SOSs, and 0 indicators.
Presolve time = 0.09 sec. (114.77 ticks)
Probing time = 0.02 sec. (15.17 ticks)
Tried aggregator 1 time.
Detecting symmetries...
MIP Presolve modified 14 coefficients.
Reduced MIP has 1213 rows, 5200 columns, and 77272 nonzeros.
Reduced MIP has 5200 binaries, 0 generals, 0 SOSs, and 0 indicators.
Presolve time = 0.07 sec. (86.53 ticks)
Probing time = 0.02 sec. (15.22 ticks)
Clique table members: 800.
MIP emphasis: balance optimality and feasibility.
MIP search method: dynamic search.
Parallel mode: none, using 1 thread.
Root relaxation solution time = 0.89 sec. (1058.21 ticks)

        Nodes                                         Cuts/
   Node  Left     Objective  IInf  Best Integer    Best Bound    ItCnt     Gap

*     0+    0                            1.0000    20100.0000              --- 
      0     0      200.0000   837        1.0000      200.0000     4183     --- 
*     0+    0                           37.0000      200.0000           440.54%
      0     0      200.0000   168       37.0000    Cliques: 1     4497  440.54%
      0     0      200.0000   244       37.0000      Cuts: 75     6771  440.54%
      0     0      200.0000   203       37.0000    Cliques: 1     7341  440.54%
*     0+    0                          189.0000      200.0000             5.82%
*     0+    0                          192.0000      200.0000             4.17%
      0     0        cutoff            192.0000      200.0000     7341    4.17%
      0     0      200.0000   263      192.0000      Cuts: 50    10757    4.17%
*     0+    0                          194.0000      200.0000             3.09%
*     0+    0                          196.0000      200.0000             2.04%
*     0+    0                          197.0000      200.0000             1.52%
      0     0        cutoff            197.0000      200.0000    10757    1.52%
Detecting symmetries...
      0     2      200.0000    93      197.0000      200.0000    10757    1.52%
Elapsed time = 17.36 sec. (18311.69 ticks, tree = 0.01 MB, solutions = 7)
      1     3      200.0000   159      197.0000      200.0000    15677    1.52%
      2     4      200.0000    96      197.0000      200.0000    18117    1.52%
      3     5      200.0000   453      197.0000      200.0000    21647    1.52%
      4     6      200.0000    96      197.0000      200.0000    21789    1.52%
      5     7      200.0000   545      197.0000      200.0000    26089    1.52%
      6     8      200.0000    90      197.0000      200.0000    26692    1.52%
      7     9      200.0000    89      197.0000      200.0000    32698    1.52%
      8    10      200.0000   499      197.0000      200.0000    37958    1.52%
      9    11      200.0000   529      197.0000      200.0000    38890    1.52%
     11    13      200.0000   421      197.0000      200.0000    41224    1.52%
Elapsed time = 26.17 sec. (28002.10 ticks, tree = 0.09 MB, solutions = 7)
     14    16      200.0000   429      197.0000      200.0000    44257    1.52%
     17    19      200.0000   339      197.0000      200.0000    50468    1.52%
     20    22      200.0000   331      197.0000      200.0000    52113    1.52%
     23    25      200.0000   341      197.0000      200.0000    55447    1.52%
     27    29      200.0000   292      197.0000      200.0000    58103    1.52%
     31    33      200.0000   190      197.0000      200.0000    60256    1.52%
     35    37      200.0000   190      197.0000      200.0000    63808    1.52%
     38    40      200.0000   444      197.0000      200.0000    70121    1.52%
     40    42      200.0000   334      197.0000      200.0000    74952    1.52%
     43    44      199.8461   389      197.0000      200.0000    87509    1.52%
Elapsed time = 39.34 sec. (42006.98 ticks, tree = 0.44 MB, solutions = 7)
     46    47      200.0000   201      197.0000      200.0000    91111    1.52%
     48    49      200.0000   409      197.0000      200.0000    95203    1.52%
     49    49      199.6739   366      197.0000      200.0000   102558    1.52%
     50    50      200.0000   402      197.0000      200.0000   102594    1.52%
     54    54      200.0000   406      197.0000      200.0000   104238    1.52%
     58    58      200.0000   406      197.0000      200.0000   105982    1.52%
     61    61      200.0000   444      197.0000      200.0000   107922    1.52%
     67    67      200.0000   370      197.0000      200.0000   109204    1.52%
     71    71      200.0000   391      197.0000      200.0000   110549    1.52%
     76    75      199.8068   371      197.0000      200.0000   112098    1.52%
Elapsed time = 50.65 sec. (53948.84 ticks, tree = 0.79 MB, solutions = 7)
     80    79      200.0000   381      197.0000      200.0000   113096    1.52%
     85    83      199.8068   313      197.0000      200.0000   114505    1.52%
     91    89      200.0000   382      197.0000      200.0000   115515    1.52%
     96    94      200.0000   332      197.0000      200.0000   117915    1.52%
    100    97      200.0000   317      197.0000      200.0000   119729    1.52%
    106   103      199.8854   342      197.0000      200.0000   121718    1.52%
    112   109      200.0000   340      197.0000      200.0000   123825    1.52%
    118   115      200.0000   346      197.0000      200.0000   125814    1.52%
    124   121      199.9583   342      197.0000      200.0000   127301    1.52%
    131   127      200.0000   357      197.0000      200.0000   128638    1.52%
Elapsed time = 61.22 sec. (64572.64 ticks, tree = 1.41 MB, solutions = 7)
    138   131      199.7500   300      197.0000      200.0000   130218    1.52%
    145   138      199.9833   322      197.0000      200.0000   132026    1.52%
    150   143      200.0000   310      197.0000      200.0000   134444    1.52%
    157   149      200.0000   313      197.0000      200.0000   135738    1.52%
    164   154      199.8176   313      197.0000      200.0000   137758    1.52%
    171   161      200.0000   313      197.0000      200.0000   139679    1.52%
    178   168      199.9318   350      197.0000      200.0000   141308    1.52%
    184   173      199.9057   345      197.0000      200.0000   142925    1.52%
    191   179      199.2899   323      197.0000      200.0000   145207    1.52%
    198   184      199.7778   348      197.0000      200.0000   146752    1.52%
Elapsed time = 71.55 sec. (74651.15 ticks, tree = 2.08 MB, solutions = 7)
    205   188      198.8478   283      197.0000      200.0000   148469    1.52%
    215   190      198.9583   305      197.0000      200.0000   150443    1.52%
    222   190      200.0000   327      197.0000      200.0000   153116    1.52%
    223   191      200.0000   352      197.0000      200.0000   157686    1.52%
    225   193      200.0000   698      197.0000      200.0000   162095    1.52%
    227   195      200.0000   243      197.0000      200.0000   165730    1.52%
    228   196      200.0000   379      197.0000      200.0000   171055    1.52%
    230   198      200.0000   142      197.0000      200.0000   175212    1.52%
    231   199      200.0000   310      197.0000      200.0000   181922    1.52%
    233   201      200.0000   291      197.0000      200.0000   186763    1.52%
Elapsed time = 85.82 sec. (90007.38 ticks, tree = 2.26 MB, solutions = 7)
    235   203      200.0000   226      197.0000      200.0000   189183    1.52%
    237   205      200.0000   220      197.0000      200.0000   192742    1.52%
    239   207      200.0000   216      197.0000      200.0000   194529    1.52%
    242   210      200.0000   487      197.0000      200.0000   196529    1.52%
    245   212      200.0000   357      197.0000      200.0000   199854    1.52%
    247   214      200.0000   285      197.0000      200.0000   203397    1.52%
    248   215      200.0000   234      197.0000      200.0000   208176    1.52%
    250   217      200.0000   223      197.0000      200.0000   211251    1.52%
    251   218      200.0000   202      197.0000      200.0000   215173    1.52%
    252   219      200.0000   303      197.0000      200.0000   218842    1.52%
Elapsed time = 96.75 sec. (101728.84 ticks, tree = 2.44 MB, solutions = 7)
    255   222      200.0000   188      197.0000      200.0000   226685    1.52%
    257   224      200.0000   405      197.0000      200.0000   228763    1.52%
    260   227      200.0000   442      197.0000      200.0000   230262    1.52%
    264   231      200.0000   315      197.0000      200.0000   232330    1.52%
    267   234      200.0000   427      197.0000      200.0000   234805    1.52%
    271   238      200.0000   422      197.0000      200.0000   237341    1.52%
    275   242      200.0000   394      197.0000      200.0000   240378    1.52%
    278   245      200.0000   349      197.0000      200.0000   242455    1.52%
    281   248      200.0000   317      197.0000      200.0000   243421    1.52%
    285   252      200.0000   298      197.0000      200.0000   244628    1.52%
Elapsed time = 107.71 sec. (113715.58 ticks, tree = 2.84 MB, solutions = 7)
    288   255      200.0000   279      197.0000      200.0000   246816    1.52%
    292   259      199.9469   406      197.0000      200.0000   248602    1.52%
    297   264      199.8696   364      197.0000      200.0000   249928    1.52%
    301   268      200.0000   242      197.0000      200.0000   252130    1.52%
    306   273      200.0000   241      197.0000      200.0000   253733    1.52%
    310   276      199.0000   235      197.0000      200.0000   257146    1.52%
    313   277      199.0000   317      197.0000      200.0000   261662    1.52%
    319   279      199.0000   298      197.0000      200.0000   262442    1.52%
    326   282      199.0000   296      197.0000      200.0000   264265    1.52%
    334   282    infeasible            197.0000      200.0000   267351    1.52%
Elapsed time = 118.16 sec. (124395.56 ticks, tree = 3.22 MB, solutions = 7)
    342   286    infeasible            197.0000      200.0000   269333    1.52%
    350   286    infeasible            197.0000      200.0000   272369    1.52%
    358   290      199.0000   316      197.0000      200.0000   274025    1.52%
    368   290      199.0000   319      197.0000      200.0000   276902    1.52%
    376   291    infeasible            197.0000      200.0000   279297    1.52%
    385   295      199.0000   240      197.0000      200.0000   281052    1.52%
    394   303      198.6250   204      197.0000      200.0000   283092    1.52%
    399   302      200.0000   358      197.0000      200.0000   285595    1.52%
    401   304      200.0000   331      197.0000      200.0000   287058    1.52%
    405   308      200.0000   540      197.0000      200.0000   297519    1.52%
Elapsed time = 131.10 sec. (137866.63 ticks, tree = 3.52 MB, solutions = 7)
    414   317      200.0000   528      197.0000      200.0000   305898    1.52%
    429   332      200.0000   252      197.0000      200.0000   312724    1.52%
    448   351      199.5625   254      197.0000      200.0000   320699    1.52%
    480   379      200.0000   152      197.0000      200.0000   327487    1.52%
    485   384      200.0000   200      197.0000      200.0000   338325    1.52%
    489   388      200.0000   302      197.0000      200.0000   352312    1.52%
    494   393      200.0000   146      197.0000      200.0000   357067    1.52%
    495   394      200.0000   147      197.0000      200.0000   357323    1.52%

Performing restart 1

Repeating presolve.
Tried aggregator 1 time.
MIP Presolve eliminated 0 rows and 197 columns.
MIP Presolve modified 14856 coefficients.
Reduced MIP has 1213 rows, 5003 columns, and 54124 nonzeros.
Reduced MIP has 5003 binaries, 0 generals, 0 SOSs, and 0 indicators.
Presolve time = 0.05 sec. (41.33 ticks)
Tried aggregator 1 time.
Reduced MIP has 1213 rows, 5003 columns, and 54124 nonzeros.
Reduced MIP has 5003 binaries, 0 generals, 0 SOSs, and 0 indicators.
Presolve time = 0.04 sec. (31.06 ticks)
Represolve time = 0.46 sec. (255.40 ticks)
    497     0      200.0000   259      197.0000   ZeroHalf: 1   364129    1.52%
    497     0      200.0000   381      197.0000    Cliques: 1   365279    1.52%
    497     0      200.0000   907      197.0000      Cuts: 11   367743    1.52%
    497     0      200.0000   258      197.0000      Cuts: 16   371341    1.52%
    497     0      200.0000   700      197.0000      Cuts: 19   372962    1.52%
    497     0      200.0000   223      197.0000    Cliques: 1   374979    1.52%
    497     0      200.0000   310      197.0000      Cuts: 13   376427    1.52%
    497     2      200.0000    84      197.0000      200.0000   376427    1.52%
    502     7      200.0000   355      197.0000      200.0000   389519    1.52%
Elapsed time = 209.05 sec. (219332.02 ticks, tree = 0.01 MB, solutions = 7)
    508    13      200.0000   279      197.0000      200.0000   400402    1.52%
    514    19      200.0000   307      197.0000      200.0000   412470    1.52%
    523    28      200.0000   309      197.0000      200.0000   429846    1.52%
    530    34      199.5417   381      197.0000      200.0000   448653    1.52%
    537    39      200.0000   113      197.0000      200.0000   465589    1.52%
    542    43      200.0000   377      197.0000      200.0000   483416    1.52%
    549    48      199.5130   172      197.0000      200.0000   500698    1.52%
    555    53      199.0000   289      197.0000      200.0000   519699    1.52%
    562    58      200.0000   100      197.0000      200.0000   538221    1.52%
    570    62      200.0000   219      197.0000      200.0000   559790    1.52%
Elapsed time = 249.75 sec. (261342.14 ticks, tree = 0.31 MB, solutions = 7)
    582    74      200.0000   184      197.0000      200.0000   565626    1.52%
    597    88      199.9677   216      197.0000      200.0000   568860    1.52%
    617   105      199.0000   119      197.0000      200.0000   573843    1.52%
    642   112      200.0000   111      197.0000      200.0000   580801    1.52%
    647   117      200.0000   117      197.0000      200.0000   592256    1.52%
    661   130      200.0000    98      197.0000      200.0000   608486    1.52%
    670   138      199.3684   299      197.0000      200.0000   622591    1.52%
    677   144      200.0000   128      197.0000      200.0000   641542    1.52%
    685   150      200.0000   109      197.0000      200.0000   661880    1.52%
    691   153      199.5657   347      197.0000      200.0000   677549    1.52%
Elapsed time = 301.84 sec. (314732.42 ticks, tree = 0.51 MB, solutions = 7)
    703   164      199.0000    44      197.0000      200.0000   694593    1.52%
*   713   155      integral     0      198.0000      200.0000   705799    1.01%
    715   156      200.0000   114      198.0000      200.0000   711044    1.01%
    726   162    infeasible            198.0000      200.0000   728553    1.01%
    740   168      199.0000    42      198.0000      200.0000   748833    1.01%
    753   171      200.0000   123      198.0000      200.0000   770079    1.01%
    766   183      199.0000   228      198.0000      200.0000   783801    1.01%
    780   187      200.0000   229      198.0000      200.0000   806160    1.01%
    791   193      199.0000   169      198.0000      200.0000   823868    1.01%
    811   205    infeasible            198.0000      200.0000   840027    1.01%
    819   210    infeasible            198.0000      200.0000   854414    1.01%
Elapsed time = 343.95 sec. (355500.10 ticks, tree = 0.63 MB, solutions = 8)
    827   216      199.0000   181      198.0000      200.0000   872130    1.01%
    837   219      200.0000    98      198.0000      200.0000   896787    1.01%
    855   230    infeasible            198.0000      200.0000   912693    1.01%
    870   236      199.0000   170      198.0000      200.0000   933022    1.01%
    885   238      199.0000    49      198.0000      200.0000   959577    1.01%
    903   250      199.0000    22      198.0000      200.0000   976641    1.01%
    916   253      200.0000   168      198.0000      200.0000   997973    1.01%
    931   267      199.0000   163      198.0000      200.0000  1012764    1.01%
    945   271      199.0000   175      198.0000      200.0000  1034231    1.01%
    966   290      199.0000    63      198.0000      200.0000  1046889    1.01%
Elapsed time = 387.66 sec. (396914.16 ticks, tree = 0.81 MB, solutions = 8)
    984   292    infeasible            198.0000      200.0000  1070853    1.01%
   1003   295      199.0000    32      198.0000      200.0000  1095270    1.01%
   1018   301      199.0000   133      198.0000      200.0000  1110604    1.01%
   1034   303    infeasible            198.0000      200.0000  1136307    1.01%
   1050   311      199.0000    75      198.0000      200.0000  1150400    1.01%
   1072   316      200.0000    74      198.0000      200.0000  1172319    1.01%
   1085   320      200.0000   115      198.0000      200.0000  1195505    1.01%
   1105   331    infeasible            198.0000      200.0000  1212706    1.01%
   1116   334    infeasible            198.0000      200.0000  1233052    1.01%
   1132   342      199.0000    50      198.0000      200.0000  1255891    1.01%
Elapsed time = 431.26 sec. (437679.69 ticks, tree = 0.92 MB, solutions = 8)
   1147   348    infeasible            198.0000      200.0000  1274379    1.01%
   1162   356      199.0000   135      198.0000      200.0000  1290448    1.01%
   1184   361      199.0000   173      198.0000      200.0000  1312513    1.01%
   1209   383      199.0000    91      198.0000      200.0000  1321897    1.01%
   1239   407    infeasible            198.0000      200.0000  1334707    1.01%
   1251   416      199.0000   139      198.0000      200.0000  1348974    1.01%
   1263   424      199.0000    74      198.0000      200.0000  1364665    1.01%
   1276   428      200.0000   135      198.0000      200.0000  1382755    1.01%
   1283   434      200.0000   181      198.0000      200.0000  1398541    1.01%
   1296   446      200.0000   195      198.0000      200.0000  1411781    1.01%
Elapsed time = 472.83 sec. (477061.17 ticks, tree = 1.26 MB, solutions = 8)
   1312   459      200.0000   103      198.0000      200.0000  1428558    1.01%
   1333   468    infeasible            198.0000      200.0000  1450193    1.01%
   1346   474    infeasible            198.0000      200.0000  1469999    1.01%
   1359   483      199.0000    44      198.0000      200.0000  1488277    1.01%
   1370   485      199.0000   137      198.0000      200.0000  1505960    1.01%
   1390   494      199.0000   402      198.0000      200.0000  1524255    1.01%
   1399   501      199.0000   183      198.0000      200.0000  1539521    1.01%
   1414   510      199.0000    53      198.0000      200.0000  1557255    1.01%
   1428   510      199.0000    48      198.0000      200.0000  1581492    1.01%
   1440   510      200.0000   106      198.0000      200.0000  1603483    1.01%
Elapsed time = 514.90 sec. (517369.07 ticks, tree = 1.88 MB, solutions = 8)
   1461   526      199.0000   107      198.0000      200.0000  1618201    1.01%
   1480   536      199.0000    32      198.0000      200.0000  1637150    1.01%
   1498   539      200.0000   170      198.0000      200.0000  1663220    1.01%
   1511   551      199.0000   185      198.0000      200.0000  1677354    1.01%
   1526   559      199.0000    86      198.0000      200.0000  1691165    1.01%
   1539   568      199.0000    55      198.0000      200.0000  1706030    1.01%
   1560   574      199.0000   128      198.0000      200.0000  1728599    1.01%
   1574   580      199.0000   120      198.0000      200.0000  1745691    1.01%
   1587   583      200.0000    68      198.0000      200.0000  1763229    1.01%
Starting limited solution polishing.
   1600   594      199.0000    91      198.0000      200.0000  1777821    1.01%
Elapsed time = 557.28 sec. (557399.96 ticks, tree = 2.33 MB, solutions = 8)
   1611   597    infeasible            198.0000      200.0000  1798608    1.01%
   1616   599    infeasible            198.0000      200.0000  1816762    1.01%
   1625   606    infeasible            198.0000      200.0000  1833088    1.01%
   1635   610    infeasible            198.0000      200.0000  1853221    1.01%
   1646   617      199.0000    97      198.0000      200.0000  1870154    1.01%
   1663   626      199.0000   106      198.0000      200.0000  1889306    1.01%
   1678   626      199.0000   278      198.0000      200.0000  1908673    1.01%
   1693   637    infeasible            198.0000      200.0000  1926407    1.01%
   1707   639      199.0000   283      198.0000      200.0000  1952178    1.01%
   1722   654      199.0000   146      198.0000      200.0000  1966890    1.01%
Elapsed time = 599.30 sec. (597970.63 ticks, tree = 2.47 MB, solutions = 8)

Clique cuts applied:  3
Zero-half cuts applied:  9
Gomory fractional cuts applied:  3

Root node processing (before b&c):
  Real time             =   17.27 sec. (18233.48 ticks)
Sequential b&c:
  Real time             =  582.73 sec. (580406.45 ticks)
                          ------------
Total (root+branch&cut) =  600.00 sec. (598639.93 ticks)
Primal:	198
Dual:	200
Status:	Feasible
Time:	599.98
Sequence:
	21
	8
	14
	12
	18
	1
	22
	7
	14
	12
	18
	2
	21
	7
	14
	12
	18
	0
	23
	7
	14
	7
	20
	5
	18
	7
	14
	13
	7
	16
	10
	18
	2
	21
	7
	14
	10
	18
	0
	23
	7
	14
	12
	18
	2
	21
	7
	14
	12
	19
	1
	21
	7
	14
	13
	7
	16
	10
	7
	15
	12
	7
	16
	10
	18
	2
	21
	7
	14
	12
	19
	1
	21
	7
	16
	11
	18
	1
	21
	7
	15
	10
	18
	1
	21
	9
	14
	10
	18
	1
	23
	8
	14
	7
	21
	1
	19
	12
	14
	7
	10
	14
	8
	23
	1
	18
	10
	14
	7
	19
	3
	18
	7
	3
	8
	18
	3
	18
	7
	15
	10
	18
	1
	21
	8
	16
	10
	7
	16
	10
	7
	14
	12
	9
	14
	10
	14
	7
	20
	3
	18
	7
	14
	10
	15
	7
	10
	16
	7
	18
	3
	20
	7
	5
	18
	7
	17
	7
	18
	5
	18
	7
	6
	18
	7
	5
	18
	9
	3
	7
	18
	3
	19
	7
	5
	7
	18
	4
	18
	7
	5
	7
	20
	3
	7
	14
	12
	7
	16
	10
	14
	9
	10
	16
	7
	14
	9
	21
